n_res = 4;
rc = [ 28, 30, 26, 22 ];
n_tasks = 15;
d = [ 7, 2, 9, 1, 250, 175, 250, 150, 200, 150, 75, 4, 2, 10, 7 ];
rr = [| 5, 0, 6, 3, 6, 4, 4, 6, 0, 0, 7, 0, 3, 0, 5
      | 1, 5, 4, 0, 3, 9, 5, 0, 9, 3, 2, 1, 8, 10, 9
      | 0, 10, 5, 4, 2, 6, 8, 5, 2, 3, 0, 7, 0, 3, 4
      | 0, 10, 7, 2, 1, 0, 5, 0, 6, 2, 0, 9, 3, 0, 9 |];
suc = [ { 5 },
       { 4, 10 },
       { 5, 6 },
       { 7 },
       { 15 },
       { 8, 12 },
       { 8, 11, 15 },
       { 9 },
       { 13 },
       {  },
       {  },
       {  },
       { 14 },
       {  },
       {  } ];
